40	100	100	100
6	1	2
5	5	1
5	6	9
5	2	8
3	9	4
5	1	5
1	4	6
1	6	9
3	7	8
9	7	3
9	2	6
4	4	2
1	9	8
2	4	1
4	6	9
2	2	6
2	9	7
7	6	9
5	5	1
9	2	7
6	1	1
4	1	1
4	7	7
5	3	7
4	9	7
5	2	4
6	5	6
5	9	1
8	6	4
2	3	9
3	3	7
1	6	7
2	3	2
9	4	2
5	1	4
7	9	7
2	9	6
3	3	4
7	2	3
4	5	2
